11
0 99 10 60 84 42 73 53 82 66 66 
89 0 68 5 2 7 49 68 12 1 81 
32 49 0 39 43 97 16 16 58 42 11 
85 77 86 0 58 10 94 78 82 49 56 
29 72 2 93 0 16 79 57 92 58 54 
54 20 39 34 30 0 84 3 56 80 16 
6 70 7 99 58 60 0 11 70 56 81 
2 46 86 61 88 94 60 0 73 61 8 
25 33 26 52 21 42 66 40 0 85 4 
27 94 87 57 55 35 66 11 40 0 45 
4 7 23 43 58 70 28 95 91 44 0 
